p cnf 200 1110
-101 62 0
-101 27 0
-101 63 0
-101 -86 0
-101 93 0
-101 -8 0
-101 -33 0
-101 -30 0
-101 -38 0
-101 99 0
101 -62 -27 -63 86 -93 8 33 30 38 -99 0
-102 -49 0
-102 61 0
-102 27 0
-102 -58 0
-102 -11 0
-102 -70 0
-102 22 0
-102 80 0
-102 -89 0
-102 -73 0
102 49 -61 -27 58 11 70 -22 -80 89 73 0
-103 -59 0
-103 -13 0
-103 -96 0
-103 1 0
-103 17 0
-103 45 0
-103 33 0
-103 -56 0
-103 42 0
-103 54 0
103 59 13 96 -1 -17 -45 -33 56 -42 -54 0
-104 30 0
-104 -63 0
-104 93 0
-104 29 0
-104 48 0
-104 44 0
-104 -15 0
-104 6 0
-104 -12 0
-104 40 0
104 -30 63 -93 -29 -48 -44 15 -6 12 -40 0
-105 -20 0
-105 70 0
-105 52 0
-105 -63 0
-105 -5 0
-105 -18 0
-105 16 0
-105 89 0
-105 85 0
-105 31 0
105 20 -70 -52 63 5 18 -16 -89 -85 -31 0
-106 -71 0
-106 -37 0
-106 86 0
-106 -16 0
-106 -57 0
-106 35 0
-106 15 0
-106 9 0
-106 -1 0
-106 -27 0
106 71 37 -86 16 57 -35 -15 -9 1 27 0
-107 9 0
-107 80 0
-107 78 0
-107 -25 0
-107 44 0
-107 72 0
-107 -51 0
-107 -56 0
-107 96 0
-107 -32 0
107 -9 -80 -78 25 -44 -72 51 56 -96 32 0
-108 -56 0
-108 74 0
-108 -78 0
-108 90 0
-108 -88 0
-108 63 0
-108 -6 0
-108 -98 0
-108 -59 0
-108 35 0
108 56 -74 78 -90 88 -63 6 98 59 -35 0
-109 -4 0
-109 -2 0
-109 -99 0
-109 -47 0
-109 73 0
-109 -13 0
-109 88 0
-109 96 0
-109 -29 0
-109 41 0
109 4 2 99 47 -73 13 -88 -96 29 -41 0
-110 -50 0
-110 -1 0
-110 32 0
-110 -67 0
-110 -51 0
-110 78 0
-110 -34 0
-110 64 0
-110 -83 0
-110 -88 0
110 50 1 -32 67 51 -78 34 -64 83 88 0
101 102 103 104 105 106 107 108 109 110 0
-111 75 0
-111 -62 0
-111 100 0
-111 -22 0
-111 -2 0
-111 -79 0
-111 -59 0
-111 81 0
-111 86 0
-111 17 0
111 -75 62 -100 22 2 79 59 -81 -86 -17 0
-112 -2 0
-112 64 0
-112 97 0
-112 -98 0
-112 86 0
-112 -61 0
-112 -44 0
-112 -17 0
-112 -53 0
-112 90 0
112 2 -64 -97 98 -86 61 44 17 53 -90 0
-113 -4 0
-113 21 0
-113 -99 0
-113 -100 0
-113 60 0
-113 57 0
-113 83 0
-113 -1 0
-113 85 0
-113 86 0
113 4 -21 99 100 -60 -57 -83 1 -85 -86 0
-114 60 0
-114 91 0
-114 32 0
-114 34 0
-114 -90 0
-114 77 0
-114 -8 0
-114 -28 0
-114 16 0
-114 -78 0
114 -60 -91 -32 -34 90 -77 8 28 -16 78 0
-115 -62 0
-115 94 0
-115 90 0
-115 67 0
-115 63 0
-115 61 0
-115 38 0
-115 -23 0
-115 54 0
-115 -30 0
115 62 -94 -90 -67 -63 -61 -38 23 -54 30 0
-116 16 0
-116 18 0
-116 95 0
-116 76 0
-116 -87 0
-116 100 0
-116 45 0
-116 22 0
-116 -35 0
-116 69 0
116 -16 -18 -95 -76 87 -100 -45 -22 35 -69 0
-117 -73 0
-117 63 0
-117 19 0
-117 -13 0
-117 45 0
-117 -26 0
-117 6 0
-117 46 0
-117 57 0
-117 62 0
117 73 -63 -19 13 -45 26 -6 -46 -57 -62 0
-118 24 0
-118 -34 0
-118 90 0
-118 -96 0
-118 11 0
-118 -100 0
-118 80 0
-118 -17 0
-118 48 0
-118 40 0
118 -24 34 -90 96 -11 100 -80 17 -48 -40 0
-119 -51 0
-119 -55 0
-119 48 0
-119 33 0
-119 62 0
-119 20 0
-119 -81 0
-119 100 0
-119 -88 0
-119 -28 0
119 51 55 -48 -33 -62 -20 81 -100 88 28 0
-120 33 0
-120 -63 0
-120 96 0
-120 -42 0
-120 -56 0
-120 -73 0
-120 10 0
-120 -71 0
-120 -3 0
-120 18 0
120 -33 63 -96 42 56 73 -10 71 3 -18 0
111 112 113 114 115 116 117 118 119 120 0
-121 85 0
-121 99 0
-121 45 0
-121 -6 0
-121 -32 0
-121 10 0
-121 47 0
-121 19 0
-121 -94 0
-121 48 0
121 -85 -99 -45 6 32 -10 -47 -19 94 -48 0
-122 -99 0
-122 20 0
-122 -21 0
-122 -86 0
-122 90 0
-122 -79 0
-122 -97 0
-122 68 0
-122 15 0
-122 -4 0
122 99 -20 21 86 -90 79 97 -68 -15 4 0
-123 97 0
-123 80 0
-123 22 0
-123 -51 0
-123 -56 0
-123 30 0
-123 -54 0
-123 -73 0
-123 -75 0
-123 -2 0
123 -97 -80 -22 51 56 -30 54 73 75 2 0
-124 57 0
-124 74 0
-124 -85 0
-124 -99 0
-124 -16 0
-124 63 0
-124 32 0
-124 84 0
-124 62 0
-124 40 0
124 -57 -74 85 99 16 -63 -32 -84 -62 -40 0
-125 -83 0
-125 -19 0
-125 -81 0
-125 -67 0
-125 20 0
-125 40 0
-125 -34 0
-125 -38 0
-125 -8 0
-125 -69 0
125 83 19 81 67 -20 -40 34 38 8 69 0
-126 -35 0
-126 -59 0
-126 -4 0
-126 84 0
-126 12 0
-126 -19 0
-126 -60 0
-126 -13 0
-126 -97 0
-126 -73 0
126 35 59 4 -84 -12 19 60 13 97 73 0
-127 -99 0
-127 7 0
-127 4 0
-127 45 0
-127 -48 0
-127 -44 0
-127 64 0
-127 -19 0
-127 76 0
-127 -39 0
127 99 -7 -4 -45 48 44 -64 19 -76 39 0
-128 70 0
-128 80 0
-128 -75 0
-128 43 0
-128 41 0
-128 29 0
-128 66 0
-128 -67 0
-128 27 0
-128 88 0
128 -70 -80 75 -43 -41 -29 -66 67 -27 -88 0
-129 -79 0
-129 -70 0
-129 -4 0
-129 32 0
-129 -6 0
-129 -58 0
-129 -88 0
-129 -26 0
-129 -15 0
-129 -21 0
129 79 70 4 -32 6 58 88 26 15 21 0
-130 -85 0
-130 56 0
-130 -47 0
-130 -1 0
-130 -88 0
-130 -39 0
-130 -70 0
-130 -61 0
-130 66 0
-130 -90 0
130 85 -56 47 1 88 39 70 61 -66 90 0
121 122 123 124 125 126 127 128 129 130 0
-131 -78 0
-131 -36 0
-131 -68 0
-131 99 0
-131 -33 0
-131 31 0
-131 13 0
-131 -42 0
-131 -94 0
-131 -100 0
131 78 36 68 -99 33 -31 -13 42 94 100 0
-132 -16 0
-132 -20 0
-132 6 0
-132 -11 0
-132 71 0
-132 -55 0
-132 -77 0
-132 -17 0
-132 73 0
-132 -26 0
132 16 20 -6 11 -71 55 77 17 -73 26 0
-133 84 0
-133 92 0
-133 -17 0
-133 -25 0
-133 57 0
-133 -100 0
-133 -1 0
-133 -47 0
-133 -23 0
-133 81 0
133 -84 -92 17 25 -57 100 1 47 23 -81 0
-134 -72 0
-134 18 0
-134 -69 0
-134 77 0
-134 45 0
-134 30 0
-134 -28 0
-134 -65 0
-134 -70 0
-134 31 0
134 72 -18 69 -77 -45 -30 28 65 70 -31 0
-135 67 0
-135 -49 0
-135 42 0
-135 98 0
-135 -16 0
-135 -38 0
-135 33 0
-135 61 0
-135 82 0
-135 -77 0
135 -67 49 -42 -98 16 38 -33 -61 -82 77 0
-136 89 0
-136 96 0
-136 -58 0
-136 6 0
-136 -59 0
-136 84 0
-136 56 0
-136 -35 0
-136 97 0
-136 -40 0
136 -89 -96 58 -6 59 -84 -56 35 -97 40 0
-137 -65 0
-137 57 0
-137 15 0
-137 40 0
-137 88 0
-137 -87 0
-137 -61 0
-137 -32 0
-137 50 0
-137 24 0
137 65 -57 -15 -40 -88 87 61 32 -50 -24 0
-138 -44 0
-138 -28 0
-138 -64 0
-138 6 0
-138 58 0
-138 -35 0
-138 -85 0
-138 29 0
-138 -92 0
-138 -9 0
138 44 28 64 -6 -58 35 85 -29 92 9 0
-139 -42 0
-139 -48 0
-139 35 0
-139 62 0
-139 -84 0
-139 -77 0
-139 34 0
-139 10 0
-139 50 0
-139 15 0
139 42 48 -35 -62 84 77 -34 -10 -50 -15 0
-140 80 0
-140 89 0
-140 -70 0
-140 -68 0
-140 -96 0
-140 37 0
-140 86 0
-140 69 0
-140 14 0
-140 29 0
140 -80 -89 70 68 96 -37 -86 -69 -14 -29 0
131 132 133 134 135 136 137 138 139 140 0
-141 -93 0
-141 -12 0
-141 58 0
-141 41 0
-141 -35 0
-141 -95 0
-141 -1 0
-141 -72 0
-141 -98 0
-141 -13 0
141 93 12 -58 -41 35 95 1 72 98 13 0
-142 -88 0
-142 32 0
-142 -89 0
-142 86 0
-142 -79 0
-142 -73 0
-142 -13 0
-142 7 0
-142 90 0
-142 -11 0
142 88 -32 89 -86 79 73 13 -7 -90 11 0
-143 71 0
-143 -74 0
-143 35 0
-143 -69 0
-143 85 0
-143 90 0
-143 87 0
-143 41 0
-143 -10 0
-143 38 0
143 -71 74 -35 69 -85 -90 -87 -41 10 -38 0
-144 59 0
-144 52 0
-144 9 0
-144 -80 0
-144 -48 0
-144 -92 0
-144 -2 0
-144 -55 0
-144 -44 0
-144 35 0
144 -59 -52 -9 80 48 92 2 55 44 -35 0
-145 62 0
-145 -67 0
-145 -56 0
-145 -71 0
-145 -37 0
-145 57 0
-145 -23 0
-145 54 0
-145 -59 0
-145 -58 0
145 -62 67 56 71 37 -57 23 -54 59 58 0
-146 51 0
-146 4 0
-146 69 0
-146 47 0
-146 -96 0
-146 26 0
-146 75 0
-146 -19 0
-146 74 0
-146 -87 0
146 -51 -4 -69 -47 96 -26 -75 19 -74 87 0
-147 29 0
-147 -61 0
-147 -35 0
-147 34 0
-147 -84 0
-147 9 0
-147 55 0
-147 77 0
-147 88 0
-147 -16 0
147 -29 61 35 -34 84 -9 -55 -77 -88 16 0
-148 -38 0
-148 81 0
-148 -17 0
-148 -94 0
-148 -30 0
-148 -21 0
-148 64 0
-148 -41 0
-148 -67 0
-148 -2 0
148 38 -81 17 94 30 21 -64 41 67 2 0
-149 76 0
-149 -57 0
-149 -25 0
-149 13 0
-149 -63 0
-149 32 0
-149 46 0
-149 5 0
-149 -56 0
-149 92 0
149 -76 57 25 -13 63 -32 -46 -5 56 -92 0
-150 34 0
-150 -56 0
-150 24 0
-150 54 0
-150 -16 0
-150 23 0
-150 71 0
-150 63 0
-150 -8 0
-150 77 0
150 -34 56 -24 -54 16 -23 -71 -63 8 -77 0
141 142 143 144 145 146 147 148 149 150 0
-151 88 0
-151 -43 0
-151 65 0
-151 -49 0
-151 12 0
-151 -100 0
-151 -71 0
-151 -87 0
-151 -63 0
-151 1 0
151 -88 43 -65 49 -12 100 71 87 63 -1 0
-152 -76 0
-152 -96 0
-152 74 0
-152 86 0
-152 -36 0
-152 -71 0
-152 93 0
-152 100 0
-152 48 0
-152 94 0
152 76 96 -74 -86 36 71 -93 -100 -48 -94 0
-153 -17 0
-153 -83 0
-153 -74 0
-153 -66 0
-153 -56 0
-153 85 0
-153 80 0
-153 -13 0
-153 -49 0
-153 23 0
153 17 83 74 66 56 -85 -80 13 49 -23 0
-154 9 0
-154 34 0
-154 -91 0
-154 8 0
-154 -40 0
-154 -61 0
-154 -32 0
-154 -63 0
-154 98 0
-154 -6 0
154 -9 -34 91 -8 40 61 32 63 -98 6 0
-155 -17 0
-155 -8 0
-155 81 0
-155 31 0
-155 -29 0
-155 67 0
-155 -77 0
-155 -19 0
-155 -63 0
-155 -57 0
155 17 8 -81 -31 29 -67 77 19 63 57 0
-156 -9 0
-156 59 0
-156 -78 0
-156 20 0
-156 60 0
-156 -93 0
-156 5 0
-156 88 0
-156 -30 0
-156 -6 0
156 9 -59 78 -20 -60 93 -5 -88 30 6 0
-157 46 0
-157 -54 0
-157 -37 0
-157 73 0
-157 78 0
-157 -26 0
-157 94 0
-157 -92 0
-157 14 0
-157 -90 0
157 -46 54 37 -73 -78 26 -94 92 -14 90 0
-158 -15 0
-158 47 0
-158 90 0
-158 -63 0
-158 100 0
-158 38 0
-158 -72 0
-158 12 0
-158 37 0
-158 49 0
158 15 -47 -90 63 -100 -38 72 -12 -37 -49 0
-159 14 0
-159 -64 0
-159 -15 0
-159 -7 0
-159 -46 0
-159 34 0
-159 -52 0
-159 -1 0
-159 51 0
-159 96 0
159 -14 64 15 7 46 -34 52 1 -51 -96 0
-160 -17 0
-160 -82 0
-160 31 0
-160 -98 0
-160 91 0
-160 63 0
-160 12 0
-160 21 0
-160 73 0
-160 -1 0
160 17 82 -31 98 -91 -63 -12 -21 -73 1 0
151 152 153 154 155 156 157 158 159 160 0
-161 -24 0
-161 -34 0
-161 -6 0
-161 64 0
-161 79 0
-161 26 0
-161 -2 0
-161 100 0
-161 -41 0
-161 47 0
161 24 34 6 -64 -79 -26 2 -100 41 -47 0
-162 23 0
-162 47 0
-162 -66 0
-162 16 0
-162 69 0
-162 -12 0
-162 18 0
-162 -64 0
-162 95 0
-162 -49 0
162 -23 -47 66 -16 -69 12 -18 64 -95 49 0
-163 50 0
-163 29 0
-163 -67 0
-163 35 0
-163 58 0
-163 -80 0
-163 63 0
-163 48 0
-163 -91 0
-163 5 0
163 -50 -29 67 -35 -58 80 -63 -48 91 -5 0
-164 -68 0
-164 -51 0
-164 56 0
-164 -49 0
-164 -11 0
-164 28 0
-164 39 0
-164 57 0
-164 53 0
-164 98 0
164 68 51 -56 49 11 -28 -39 -57 -53 -98 0
-165 -47 0
-165 -10 0
-165 24 0
-165 -33 0
-165 1 0
-165 41 0
-165 18 0
-165 -2 0
-165 92 0
-165 61 0
165 47 10 -24 33 -1 -41 -18 2 -92 -61 0
-166 -74 0
-166 -92 0
-166 22 0
-166 -18 0
-166 -52 0
-166 90 0
-166 -38 0
-166 77 0
-166 95 0
-166 -66 0
166 74 92 -22 18 52 -90 38 -77 -95 66 0
-167 -66 0
-167 -86 0
-167 -58 0
-167 90 0
-167 -32 0
-167 29 0
-167 97 0
-167 -10 0
-167 19 0
-167 62 0
167 66 86 58 -90 32 -29 -97 10 -19 -62 0
-168 51 0
-168 -30 0
-168 72 0
-168 -10 0
-168 -39 0
-168 94 0
-168 7 0
-168 -62 0
-168 -100 0
-168 22 0
168 -51 30 -72 10 39 -94 -7 62 100 -22 0
-169 -25 0
-169 -7 0
-169 -59 0
-169 13 0
-169 17 0
-169 78 0
-169 14 0
-169 60 0
-169 54 0
-169 -35 0
169 25 7 59 -13 -17 -78 -14 -60 -54 35 0
-170 61 0
-170 -62 0
-170 -76 0
-170 36 0
-170 -97 0
-170 -47 0
-170 -44 0
-170 81 0
-170 57 0
-170 -95 0
170 -61 62 76 -36 97 47 44 -81 -57 95 0
161 162 163 164 165 166 167 168 169 170 0
-171 74 0
-171 59 0
-171 75 0
-171 63 0
-171 -90 0
-171 47 0
-171 61 0
-171 -3 0
-171 -39 0
-171 -21 0
171 -74 -59 -75 -63 90 -47 -61 3 39 21 0
-172 40 0
-172 89 0
-172 45 0
-172 98 0
-172 49 0
-172 -29 0
-172 96 0
-172 -100 0
-172 -33 0
-172 -66 0
172 -40 -89 -45 -98 -49 29 -96 100 33 66 0
-173 31 0
-173 45 0
-173 74 0
-173 -93 0
-173 81 0
-173 -49 0
-173 82 0
-173 -60 0
-173 -85 0
-173 15 0
173 -31 -45 -74 93 -81 49 -82 60 85 -15 0
-174 -93 0
-174 46 0
-174 -83 0
-174 96 0
-174 -84 0
-174 19 0
-174 -47 0
-174 5 0
-174 58 0
-174 22 0
174 93 -46 83 -96 84 -19 47 -5 -58 -22 0
-175 11 0
-175 51 0
-175 35 0
-175 -1 0
-175 38 0
-175 -79 0
-175 88 0
-175 4 0
-175 -40 0
-175 45 0
175 -11 -51 -35 1 -38 79 -88 -4 40 -45 0
-176 64 0
-176 3 0
-176 46 0
-176 -30 0
-176 66 0
-176 -43 0
-176 -37 0
-176 -68 0
-176 -78 0
-176 13 0
176 -64 -3 -46 30 -66 43 37 68 78 -13 0
-177 11 0
-177 66 0
-177 -83 0
-177 24 0
-177 -91 0
-177 6 0
-177 36 0
-177 10 0
-177 60 0
-177 -4 0
177 -11 -66 83 -24 91 -6 -36 -10 -60 4 0
-178 88 0
-178 75 0
-178 2 0
-178 -74 0
-178 -59 0
-178 83 0
-178 50 0
-178 4 0
-178 -37 0
-178 -38 0
178 -88 -75 -2 74 59 -83 -50 -4 37 38 0
-179 -56 0
-179 11 0
-179 -76 0
-179 -79 0
-179 68 0
-179 -20 0
-179 -96 0
-179 -7 0
-179 32 0
-179 23 0
179 56 -11 76 79 -68 20 96 7 -32 -23 0
-180 83 0
-180 -5 0
-180 -82 0
-180 65 0
-180 55 0
-180 -29 0
-180 47 0
-180 8 0
-180 68 0
-180 -67 0
180 -83 5 82 -65 -55 29 -47 -8 -68 67 0
171 172 173 174 175 176 177 178 179 180 0
-181 55 0
-181 82 0
-181 -75 0
-181 -41 0
-181 40 0
-181 28 0
-181 8 0
-181 24 0
-181 -65 0
-181 39 0
181 -55 -82 75 41 -40 -28 -8 -24 65 -39 0
-182 14 0
-182 66 0
-182 53 0
-182 -50 0
-182 94 0
-182 31 0
-182 -5 0
-182 -41 0
-182 -69 0
-182 15 0
182 -14 -66 -53 50 -94 -31 5 41 69 -15 0
-183 89 0
-183 -61 0
-183 -12 0
-183 -17 0
-183 -82 0
-183 -86 0
-183 85 0
-183 14 0
-183 70 0
-183 55 0
183 -89 61 12 17 82 86 -85 -14 -70 -55 0
-184 26 0
-184 53 0
-184 45 0
-184 -6 0
-184 -94 0
-184 78 0
-184 16 0
-184 18 0
-184 37 0
-184 65 0
184 -26 -53 -45 6 94 -78 -16 -18 -37 -65 0
-185 45 0
-185 -74 0
-185 -2 0
-185 -26 0
-185 -43 0
-185 25 0
-185 72 0
-185 -12 0
-185 97 0
-185 46 0
185 -45 74 2 26 43 -25 -72 12 -97 -46 0
-186 79 0
-186 -35 0
-186 96 0
-186 83 0
-186 -86 0
-186 -52 0
-186 28 0
-186 -24 0
-186 -60 0
-186 33 0
186 -79 35 -96 -83 86 52 -28 24 60 -33 0
-187 93 0
-187 -78 0
-187 77 0
-187 -63 0
-187 -15 0
-187 66 0
-187 48 0
-187 -86 0
-187 35 0
-187 -17 0
187 -93 78 -77 63 15 -66 -48 86 -35 17 0
-188 71 0
-188 -97 0
-188 5 0
-188 -83 0
-188 -80 0
-188 -36 0
-188 -50 0
-188 -94 0
-188 68 0
-188 -23 0
188 -71 97 -5 83 80 36 50 94 -68 23 0
-189 53 0
-189 13 0
-189 52 0
-189 -10 0
-189 92 0
-189 59 0
-189 9 0
-189 -61 0
-189 5 0
-189 -43 0
189 -53 -13 -52 10 -92 -59 -9 61 -5 43 0
-190 -29 0
-190 11 0
-190 -51 0
-190 -7 0
-190 26 0
-190 60 0
-190 80 0
-190 -31 0
-190 -95 0
-190 57 0
190 29 -11 51 7 -26 -60 -80 31 95 -57 0
181 182 183 184 185 186 187 188 189 190 0
-191 57 0
-191 -10 0
-191 -92 0
-191 79 0
-191 -100 0
-191 84 0
-191 -85 0
-191 52 0
-191 -28 0
-191 37 0
191 -57 10 92 -79 100 -84 85 -52 28 -37 0
-192 50 0
-192 -89 0
-192 79 0
-192 -59 0
-192 -87 0
-192 63 0
-192 -99 0
-192 -3 0
-192 57 0
-192 -29 0
192 -50 89 -79 59 87 -63 99 3 -57 29 0
-193 79 0
-193 74 0
-193 -3 0
-193 -40 0
-193 13 0
-193 -36 0
-193 45 0
-193 -34 0
-193 -51 0
-193 50 0
193 -79 -74 3 40 -13 36 -45 34 51 -50 0
-194 49 0
-194 -53 0
-194 32 0
-194 -1 0
-194 -31 0
-194 58 0
-194 -66 0
-194 22 0
-194 3 0
-194 -48 0
194 -49 53 -32 1 31 -58 66 -22 -3 48 0
-195 59 0
-195 -50 0
-195 87 0
-195 88 0
-195 -81 0
-195 1 0
-195 -23 0
-195 -25 0
-195 -44 0
-195 12 0
195 -59 50 -87 -88 81 -1 23 25 44 -12 0
-196 -83 0
-196 47 0
-196 92 0
-196 -41 0
-196 -53 0
-196 -25 0
-196 74 0
-196 35 0
-196 -65 0
-196 69 0
196 83 -47 -92 41 53 25 -74 -35 65 -69 0
-197 18 0
-197 -96 0
-197 -98 0
-197 -92 0
-197 -31 0
-197 -16 0
-197 8 0
-197 -88 0
-197 -23 0
-197 5 0
197 -18 96 98 92 31 16 -8 88 23 -5 0
-198 49 0
-198 67 0
-198 70 0
-198 -27 0
-198 30 0
-198 78 0
-198 -92 0
-198 47 0
-198 -41 0
-198 -13 0
198 -49 -67 -70 27 -30 -78 92 -47 41 13 0
-199 -93 0
-199 -70 0
-199 -51 0
-199 -24 0
-199 -50 0
-199 92 0
-199 4 0
-199 41 0
-199 -38 0
-199 -83 0
199 93 70 51 24 50 -92 -4 -41 38 83 0
-200 -63 0
-200 -34 0
-200 28 0
-200 43 0
-200 -81 0
-200 -77 0
-200 -89 0
-200 -68 0
-200 -67 0
-200 -96 0
200 63 34 -28 -43 81 77 89 68 67 96 0
191 192 193 194 195 196 197 198 199 200 0
